(set-logic HORN)
(set-info :source |
    Benchmark: C_VC
    Output by Princess (http://www.philipp.ruemmer.org/princess.shtml)
|)
(set-info :status sat)
;===============================================================================
; Encoding of Heap sorts and operations
;-------------------------------------------------------------------------------
(define-sort Addr() Int)
(declare-datatypes ((HeapObject 0) (node 0))
                   (((O_Int (getInt Int)) (O_UInt (getUInt Int)) (O_Addr (getAddr Addr)) (O_node (getnode node)) (defObj))
                   ((node (expected_list Int) (value Int) (next Addr)))))
(declare-datatypes ((AllocResHeap 0) (Heap 0))
                   (((AllocResHeap   (newHeap Heap) (newAddr Addr)))
                    ((HeapCtor (HeapSize Int)
                               (HeapContents (Array Addr HeapObject))))))
(define-fun nullAddr  () Addr 0)
(define-fun valid     ((h Heap) (p Addr)) Bool
  (and (>= (HeapSize h) p) (> p 0)))
(define-fun emptyHeap () Heap (
  HeapCtor 0 (( as const (Array Addr HeapObject)) defObj)))
(define-fun read ((h Heap) (p Addr)) HeapObject
  (ite (valid h p)
       (select (HeapContents h) p)
       defObj))
(define-fun write ((h Heap) (p Addr) (o HeapObject)) Heap
  (ite (valid h p)
       (HeapCtor (HeapSize h) (store (HeapContents h) p o))
       h))
(define-fun alloc   ((h Heap) (o HeapObject)) AllocResHeap
  (AllocResHeap (HeapCtor (+ 1 (HeapSize h))
                    (store (HeapContents h) (+ 1 (HeapSize h)) o))
          (+ 1 (HeapSize h))))

;===============================================================================
(declare-fun inv_main17 (Heap Addr Int Int Int Int Addr) Bool)
(declare-fun inv_main18 (Heap Addr Int Int Int Int Addr) Bool)
(declare-fun inv_main19 (Heap Addr Int Int Int Int Addr) Bool)
(declare-fun inv_main2 (Heap) Bool)
(declare-fun inv_main24 (Heap Addr Int Int Int Int Addr) Bool)
(declare-fun inv_main25 (Heap Addr Int Int Int Int Addr) Bool)
(declare-fun inv_main26 (Heap Addr Int Int Int Int Addr) Bool)
(declare-fun inv_main32 (Heap Addr Addr Addr Addr) Bool)
(declare-fun inv_main33 (Heap Addr Addr Addr Addr) Bool)
(declare-fun inv_main36 (Heap Addr Addr Addr Addr Addr) Bool)
(declare-fun inv_main37 (Heap Addr Addr Addr Addr Addr Addr) Bool)
(declare-fun inv_main41 (Heap Addr Addr Addr Addr) Bool)
(declare-fun inv_main42 (Heap Addr Addr Addr Addr) Bool)
(declare-fun inv_main43 (Heap Addr Addr Addr Addr) Bool)
(declare-fun inv_main47 (Heap Addr Addr Addr Addr) Bool)
(declare-fun inv_main48 (Heap Addr Addr Addr Addr) Bool)
(declare-fun inv_main49 (Heap Addr Addr Addr Addr) Bool)
(declare-fun inv_main6 (Heap Addr) Bool)
(assert (inv_main2 emptyHeap))
(assert (forall ((var0 Addr) (var1 Addr) (var2 Addr) (var3 Addr) (var4 Addr) (var5 Heap) (var6 Addr) (var7 Addr) (var8 Addr) (var9 Addr) (var10 Addr) (var11 Addr) (var12 Addr) (var13 Heap)) (or (not (and (inv_main37 var13 var12 var11 var10 var9 var8 var7) (and (not (= var6 nullAddr)) (and (is-O_node (read var13 var9)) (and (and (and (and (and (and (= var5 (write var13 var9 (O_node (node (expected_list (getnode (read var13 var9))) (value (getnode (read var13 var9))) var8)))) (= var4 var12)) (= var3 var11)) (= var2 var10)) (= var1 var9)) (= var0 var8)) (= var6 var7)))))) (inv_main33 var5 var4 var3 var2 var6))))
(assert (forall ((var0 Int) (var1 Addr) (var2 Addr) (var3 Addr) (var4 Addr) (var5 Heap) (var6 Heap) (var7 Addr) (var8 Addr) (var9 Heap)) (or (not (and (inv_main6 var9 var8) (and (and (and (not (= var7 nullAddr)) (and (and (and (= var6 var5) (= var7 var4)) (= var3 var2)) (= var1 nullAddr))) (and (and (= var5 var9) (= var4 var8)) (= var2 nullAddr))) (= var0 0)))) (inv_main33 var6 var7 var3 var1 var7))))
(assert (forall ((var0 Addr) (var1 Addr) (var2 Addr) (var3 Addr) (var4 Heap) (var5 Int) (var6 Addr) (var7 Addr) (var8 Addr) (var9 Addr) (var10 Heap)) (or (not (and (inv_main47 var10 var9 var8 var7 var6) (and (and (not (= var5 1)) (is-O_node (read var10 var7))) (and (and (and (and (and (= var4 var10) (= var3 var9)) (= var2 var8)) (= var1 var7)) (= var0 var6)) (= var5 (expected_list (getnode (read var10 var7)))))))) (inv_main49 var4 var3 var2 var1 var0))))
(assert (forall ((var0 Addr) (var1 Addr) (var2 Addr) (var3 Addr) (var4 Heap)) (or (not (and (inv_main32 var4 var3 var2 var1 var0) (and (not (= var1 nullAddr)) (= var2 nullAddr)))) (inv_main47 var4 var3 var2 var1 var0))))
(assert (forall ((var0 Addr) (var1 Addr) (var2 Addr) (var3 Addr) (var4 Heap) (var5 Addr) (var6 Addr) (var7 Addr) (var8 Addr) (var9 Addr) (var10 Heap)) (or (not (and (inv_main48 var10 var9 var8 var7 var6) (and (not (= var5 nullAddr)) (and (is-O_node (read var10 var7)) (and (and (and (and (and (= var4 var10) (= var3 var9)) (= var2 var8)) (= var1 var7)) (= var0 var6)) (= var5 (next (getnode (read var10 var7))))))))) (inv_main47 var4 var3 var2 var5 var0))))
(assert (forall ((var0 node) (var1 Int) (var2 Int) (var3 Addr) (var4 Heap)) (or (not (and (inv_main6 var4 var3) (and (<= 0 (+ (* (- 1) var2) (- 1))) (not (= var1 0))))) (inv_main17 (newHeap (alloc var4 (O_node var0))) var3 var2 1 var2 (- 1) (newAddr (alloc var4 (O_node var0)))))))
(assert (forall ((var0 Addr) (var1 Addr) (var2 Addr) (var3 Addr) (var4 Heap)) (or (not (and (inv_main32 var4 var3 var2 var1 var0) (not (= var2 nullAddr)))) (inv_main41 var4 var3 var2 var1 var0))))
(assert (forall ((var0 Addr) (var1 Int) (var2 Int) (var3 Int) (var4 Int) (var5 Addr) (var6 Heap)) (or (not (and (inv_main24 var6 var5 var4 var3 var2 var1 var0) (is-O_node (read var6 var0)))) (inv_main25 (write var6 var0 (O_node (node (expected_list (getnode (read var6 var0))) (value (getnode (read var6 var0))) var5))) var5 var4 var3 var2 var1 var0))))
(assert (forall ((var0 Addr) (var1 Addr) (var2 Addr) (var3 Addr) (var4 Heap)) (or (not (inv_main43 var4 var3 var2 var1 var0)) (inv_main42 var4 var3 var2 var1 var0))))
(assert (forall ((var0 Addr) (var1 Addr) (var2 Addr) (var3 Addr) (var4 Heap) (var5 Int) (var6 Addr) (var7 Addr) (var8 Addr) (var9 Addr) (var10 Heap)) (or (not (and (inv_main41 var10 var9 var8 var7 var6) (and (and (= var5 (- 1)) (is-O_node (read var10 var8))) (and (and (and (and (and (= var4 var10) (= var3 var9)) (= var2 var8)) (= var1 var7)) (= var0 var6)) (= var5 (expected_list (getnode (read var10 var8)))))))) (inv_main42 var4 var3 var2 var1 var0))))
(assert (forall ((var0 Addr) (var1 Int) (var2 Int) (var3 Int) (var4 Int) (var5 Addr) (var6 Heap)) (or (not (and (inv_main25 var6 var5 var4 var3 var2 var1 var0) (is-O_node (read var6 var0)))) (inv_main26 (write var6 var0 (O_node (node (expected_list (getnode (read var6 var0))) var2 (next (getnode (read var6 var0)))))) var5 var4 var3 var2 var1 var0))))
(assert (forall ((var0 Addr) (var1 Addr) (var2 Addr) (var3 Addr) (var4 Addr) (var5 Heap) (var6 Addr) (var7 Addr) (var8 Addr) (var9 Addr) (var10 Heap)) (or (not (and (inv_main42 var10 var9 var8 var7 var6) (and (is-O_node (read var10 var8)) (and (and (and (and (and (= var5 var10) (= var4 var9)) (= var3 var8)) (= var2 var7)) (= var1 var6)) (= var0 (next (getnode (read var10 var8)))))))) (inv_main32 var5 var4 var0 var2 var1))))
(assert (forall ((var0 Addr) (var1 Addr) (var2 Addr) (var3 Addr) (var4 Addr) (var5 Heap) (var6 Addr) (var7 Addr) (var8 Addr) (var9 Addr) (var10 Addr) (var11 Addr) (var12 Addr) (var13 Heap)) (or (not (and (inv_main37 var13 var12 var11 var10 var9 var8 var7) (and (= var6 nullAddr) (and (is-O_node (read var13 var9)) (and (and (and (and (and (and (= var5 (write var13 var9 (O_node (node (expected_list (getnode (read var13 var9))) (value (getnode (read var13 var9))) var8)))) (= var4 var12)) (= var3 var11)) (= var2 var10)) (= var1 var9)) (= var0 var8)) (= var6 var7)))))) (inv_main32 var5 var4 var3 var2 var6))))
(assert (forall ((var0 Int) (var1 Addr) (var2 Addr) (var3 Addr) (var4 Addr) (var5 Heap) (var6 Heap) (var7 Addr) (var8 Addr) (var9 Heap)) (or (not (and (inv_main6 var9 var8) (and (and (and (= var7 nullAddr) (and (and (and (= var6 var5) (= var7 var4)) (= var3 var2)) (= var1 nullAddr))) (and (and (= var5 var9) (= var4 var8)) (= var2 nullAddr))) (= var0 0)))) (inv_main32 var6 var7 var3 var1 var7))))
(assert (forall ((var0 Addr) (var1 Addr) (var2 Addr) (var3 Addr) (var4 Addr) (var5 Heap)) (or (not (and (inv_main36 var5 var4 var3 var2 var1 var0) (is-O_node (read var5 var1)))) (inv_main37 var5 var4 var3 var2 var1 var0 (next (getnode (read var5 var1)))))))
(assert (forall ((var0 Addr) (var1 Int) (var2 Int) (var3 Int) (var4 Int) (var5 Addr) (var6 Heap)) (or (not (and (inv_main17 var6 var5 var4 var3 var2 var1 var0) (is-O_node (read var6 var0)))) (inv_main18 (write var6 var0 (O_node (node (expected_list (getnode (read var6 var0))) (value (getnode (read var6 var0))) var5))) var5 var4 var3 var2 var1 var0))))
(assert (forall ((var0 Addr) (var1 Addr) (var2 Addr) (var3 Addr) (var4 Heap) (var5 Int) (var6 Addr) (var7 Addr) (var8 Addr) (var9 Addr) (var10 Heap)) (or (not (and (inv_main41 var10 var9 var8 var7 var6) (and (and (not (= var5 (- 1))) (is-O_node (read var10 var8))) (and (and (and (and (and (= var4 var10) (= var3 var9)) (= var2 var8)) (= var1 var7)) (= var0 var6)) (= var5 (expected_list (getnode (read var10 var8)))))))) (inv_main43 var4 var3 var2 var1 var0))))
(assert (forall ((var0 Addr) (var1 Addr) (var2 Addr) (var3 Addr) (var4 Heap) (var5 Int) (var6 Addr) (var7 Addr) (var8 Addr) (var9 Addr) (var10 Heap)) (or (not (and (inv_main33 var10 var9 var8 var7 var6) (and (and (<= 0 var5) (is-O_node (read var10 var6))) (and (and (and (and (and (= var4 var10) (= var3 var9)) (= var2 var8)) (= var1 var7)) (= var0 var6)) (= var5 (value (getnode (read var10 var6)))))))) (inv_main36 var4 var3 var2 var1 var0 var1))))
(assert (forall ((var0 Addr) (var1 Addr) (var2 Addr) (var3 Addr) (var4 Heap) (var5 Int) (var6 Addr) (var7 Addr) (var8 Addr) (var9 Addr) (var10 Heap)) (or (not (and (inv_main33 var10 var9 var8 var7 var6) (and (and (not (<= 0 var5)) (is-O_node (read var10 var6))) (and (and (and (and (and (= var4 var10) (= var3 var9)) (= var2 var8)) (= var1 var7)) (= var0 var6)) (= var5 (value (getnode (read var10 var6)))))))) (inv_main36 var4 var3 var2 var1 var0 var2))))
(assert (forall ((var0 node) (var1 Int) (var2 Int) (var3 Addr) (var4 Heap)) (or (not (and (inv_main6 var4 var3) (and (not (<= 0 (+ (* (- 1) var2) (- 1)))) (not (= var1 0))))) (inv_main24 (newHeap (alloc var4 (O_node var0))) var3 var2 1 var2 1 (newAddr (alloc var4 (O_node var0)))))))
(assert (forall ((var0 Addr) (var1 Int) (var2 Int) (var3 Int) (var4 Int) (var5 Addr) (var6 Heap) (var7 Addr) (var8 Int) (var9 Int) (var10 Int) (var11 Int) (var12 Addr) (var13 Heap)) (or (not (and (inv_main19 var13 var12 var11 var10 var9 var8 var7) (and (is-O_node (read var13 var7)) (and (and (and (and (and (and (= var6 (write var13 var7 (O_node (node var8 (value (getnode (read var13 var7))) (next (getnode (read var13 var7))))))) (= var5 var12)) (= var4 var11)) (= var3 var10)) (= var2 var9)) (= var1 var8)) (= var0 var7))))) (inv_main6 var6 var0))))
(assert (forall ((var0 Addr) (var1 Int) (var2 Int) (var3 Int) (var4 Int) (var5 Addr) (var6 Heap) (var7 Addr) (var8 Int) (var9 Int) (var10 Int) (var11 Int) (var12 Addr) (var13 Heap)) (or (not (and (inv_main26 var13 var12 var11 var10 var9 var8 var7) (and (is-O_node (read var13 var7)) (and (and (and (and (and (and (= var6 (write var13 var7 (O_node (node var8 (value (getnode (read var13 var7))) (next (getnode (read var13 var7))))))) (= var5 var12)) (= var4 var11)) (= var3 var10)) (= var2 var9)) (= var1 var8)) (= var0 var7))))) (inv_main6 var6 var0))))
(assert (forall ((var0 Heap)) (or (not (inv_main2 var0)) (inv_main6 var0 nullAddr))))
(assert (forall ((var0 Addr) (var1 Addr) (var2 Addr) (var3 Addr) (var4 Heap)) (or (not (inv_main49 var4 var3 var2 var1 var0)) (inv_main48 var4 var3 var2 var1 var0))))
(assert (forall ((var0 Addr) (var1 Addr) (var2 Addr) (var3 Addr) (var4 Heap) (var5 Int) (var6 Addr) (var7 Addr) (var8 Addr) (var9 Addr) (var10 Heap)) (or (not (and (inv_main47 var10 var9 var8 var7 var6) (and (and (= var5 1) (is-O_node (read var10 var7))) (and (and (and (and (and (= var4 var10) (= var3 var9)) (= var2 var8)) (= var1 var7)) (= var0 var6)) (= var5 (expected_list (getnode (read var10 var7)))))))) (inv_main48 var4 var3 var2 var1 var0))))
(assert (forall ((var0 Addr) (var1 Int) (var2 Int) (var3 Int) (var4 Int) (var5 Addr) (var6 Heap)) (or (not (and (inv_main18 var6 var5 var4 var3 var2 var1 var0) (is-O_node (read var6 var0)))) (inv_main19 (write var6 var0 (O_node (node (expected_list (getnode (read var6 var0))) var2 (next (getnode (read var6 var0)))))) var5 var4 var3 var2 var1 var0))))
(assert (forall ((var0 Addr) (var1 Int) (var2 Int) (var3 Int) (var4 Int) (var5 Addr) (var6 Heap)) (not (and (inv_main17 var6 var5 var4 var3 var2 var1 var0) (not (is-O_node (read var6 var0)))))))
(assert (forall ((var0 Addr) (var1 Int) (var2 Int) (var3 Int) (var4 Int) (var5 Addr) (var6 Heap)) (not (and (inv_main18 var6 var5 var4 var3 var2 var1 var0) (not (is-O_node (read var6 var0)))))))
(assert (forall ((var0 Addr) (var1 Int) (var2 Int) (var3 Int) (var4 Int) (var5 Addr) (var6 Heap)) (not (and (inv_main19 var6 var5 var4 var3 var2 var1 var0) (not (is-O_node (read var6 var0)))))))
(assert (forall ((var0 Addr) (var1 Int) (var2 Int) (var3 Int) (var4 Int) (var5 Addr) (var6 Heap)) (not (and (inv_main24 var6 var5 var4 var3 var2 var1 var0) (not (is-O_node (read var6 var0)))))))
(assert (forall ((var0 Addr) (var1 Int) (var2 Int) (var3 Int) (var4 Int) (var5 Addr) (var6 Heap)) (not (and (inv_main25 var6 var5 var4 var3 var2 var1 var0) (not (is-O_node (read var6 var0)))))))
(assert (forall ((var0 Addr) (var1 Int) (var2 Int) (var3 Int) (var4 Int) (var5 Addr) (var6 Heap)) (not (and (inv_main26 var6 var5 var4 var3 var2 var1 var0) (not (is-O_node (read var6 var0)))))))
(assert (forall ((var0 Addr) (var1 Addr) (var2 Addr) (var3 Addr) (var4 Heap)) (not (and (inv_main33 var4 var3 var2 var1 var0) (not (is-O_node (read var4 var0)))))))
(assert (forall ((var0 Addr) (var1 Addr) (var2 Addr) (var3 Addr) (var4 Addr) (var5 Heap)) (not (and (inv_main36 var5 var4 var3 var2 var1 var0) (not (is-O_node (read var5 var1)))))))
(assert (forall ((var0 Addr) (var1 Addr) (var2 Addr) (var3 Addr) (var4 Addr) (var5 Addr) (var6 Heap)) (not (and (inv_main37 var6 var5 var4 var3 var2 var1 var0) (not (is-O_node (read var6 var2)))))))
(assert (forall ((var0 Addr) (var1 Addr) (var2 Addr) (var3 Addr) (var4 Heap)) (not (and (inv_main41 var4 var3 var2 var1 var0) (not (is-O_node (read var4 var2)))))))
(assert (forall ((var0 Addr) (var1 Addr) (var2 Addr) (var3 Addr) (var4 Heap)) (not (inv_main43 var4 var3 var2 var1 var0))))
(assert (forall ((var0 Addr) (var1 Addr) (var2 Addr) (var3 Addr) (var4 Heap)) (not (and (inv_main42 var4 var3 var2 var1 var0) (not (is-O_node (read var4 var2)))))))
(assert (forall ((var0 Addr) (var1 Addr) (var2 Addr) (var3 Addr) (var4 Heap)) (not (and (inv_main47 var4 var3 var2 var1 var0) (not (is-O_node (read var4 var1)))))))
(assert (forall ((var0 Addr) (var1 Addr) (var2 Addr) (var3 Addr) (var4 Heap)) (not (inv_main49 var4 var3 var2 var1 var0))))
(assert (forall ((var0 Addr) (var1 Addr) (var2 Addr) (var3 Addr) (var4 Heap)) (not (and (inv_main48 var4 var3 var2 var1 var0) (not (is-O_node (read var4 var1)))))))
(check-sat)
